p cnf 7230 16
460 -733 0
-466 -728 729 0
-464 -725 726 0
-460 -731 732 0
466 -730 0
464 -727 0
460 -736 0
-460 -734 735 0
-732 733 0
-729 730 0
-726 727 0
-735 736 0
734 -736 0
731 -733 0
728 -730 0
725 -727 0
